n_res = 2;
rc = [ 8, 8 ];
n_tasks = 23;
d = [ 14, 18, 13, 15, 16, 7, 14, 5, 9, 6, 9, 16, 9, 8, 14, 9, 14, 13, 10, 7, 6, 17, 5 ];
rr = [| 3, 3, 2, 3, 3, 3, 3, 3, 3, 2, 3, 2, 3, 2, 3, 2, 3, 2, 2, 2, 3, 2, 3
      | 2, 3, 3, 2, 2, 3, 3, 2, 3, 3, 3, 3, 3, 3, 2, 2, 3, 3, 3, 3, 3, 3, 3 |];
suc = [ { 4, 7 },
       {  },
       { 6, 19 },
       { 12, 17 },
       {  },
       { 20 },
       { 20 },
       { 21, 22 },
       {  },
       {  },
       {  },
       { 15, 21 },
       {  },
       { 19, 20 },
       {  },
       {  },
       {  },
       {  },
       {  },
       { 21 },
       {  },
       {  },
       {  } ];
